9 200
0 0 70 70 0 0 1351 0 0 0
1 148 127 29 20 70 141 90 0 103
2 197 130 27 30 229 280 0 0 203
3 124 132 24 10 311 384 90 0 69
4 141 136 29 10 406 482 90 0 200
5 103 127 28 -20 128 195 90 148 0
6 203 130 27 -30 229 280 90 197 0
7 69 134 31 -10 508 566 90 124 0
8 200 131 31 -10 604 657 90 141 0

